c Modular CNF with 4 modules
c Generated CNF instance
p cnf 40 640
8 5 3 0
8 5 -3 0
8 -5 3 0
-8 5 3 0
10 1 7 0
10 1 -7 0
10 -1 7 0
-10 1 7 0
1 7 4 0
1 7 -4 0
1 -7 4 0
-1 7 4 0
5 1 6 0
5 1 -6 0
5 -1 6 0
-5 1 6 0
2 8 6 0
2 8 -6 0
2 -8 6 0
-2 8 6 0
2 4 5 0
2 4 -5 0
2 -4 5 0
-2 4 5 0
5 3 7 0
5 3 -7 0
5 -3 7 0
-5 3 7 0
6 10 4 0
6 10 -4 0
6 -10 4 0
-6 10 4 0
2 3 7 0
2 3 -7 0
2 -3 7 0
-2 3 7 0
2 7 10 0
2 7 -10 0
2 -7 10 0
-2 7 10 0
7 8 3 0
7 8 -3 0
7 -8 3 0
-7 8 3 0
2 5 6 0
2 5 -6 0
2 -5 6 0
-2 5 6 0
5 4 1 0
5 4 -1 0
5 -4 1 0
-5 4 1 0
5 9 6 0
5 9 -6 0
5 -9 6 0
-5 9 6 0
8 10 2 0
8 10 -2 0
8 -10 2 0
-8 10 2 0
6 5 9 0
6 5 -9 0
6 -5 9 0
-6 5 9 0
7 8 9 0
7 8 -9 0
7 -8 9 0
-7 8 9 0
7 2 5 0
7 2 -5 0
7 -2 5 0
-7 2 5 0
5 3 6 0
5 3 -6 0
5 -3 6 0
-5 3 6 0
5 3 6 0
5 3 -6 0
5 -3 6 0
-5 3 6 0
1 4 7 0
1 4 -7 0
1 -4 7 0
-1 4 7 0
3 7 2 0
3 7 -2 0
3 -7 2 0
-3 7 2 0
3 9 6 0
3 9 -6 0
3 -9 6 0
-3 9 6 0
5 2 10 0
5 2 -10 0
5 -2 10 0
-5 2 10 0
4 10 6 0
4 10 -6 0
4 -10 6 0
-4 10 6 0
5 2 10 0
5 2 -10 0
5 -2 10 0
-5 2 10 0
1 4 9 0
1 4 -9 0
1 -4 9 0
-1 4 9 0
7 8 3 0
7 8 -3 0
7 -8 3 0
-7 8 3 0
6 7 1 0
6 7 -1 0
6 -7 1 0
-6 7 1 0
2 5 4 0
2 5 -4 0
2 -5 4 0
-2 5 4 0
2 5 7 0
2 5 -7 0
2 -5 7 0
-2 5 7 0
5 9 4 0
5 9 -4 0
5 -9 4 0
-5 9 4 0
2 1 4 0
2 1 -4 0
2 -1 4 0
-2 1 4 0
7 8 1 0
7 8 -1 0
7 -8 1 0
-7 8 1 0
4 3 1 0
4 3 -1 0
4 -3 1 0
-4 3 1 0
1 7 6 0
1 7 -6 0
1 -7 6 0
-1 7 6 0
1 9 5 0
1 9 -5 0
1 -9 5 0
-1 9 5 0
1 8 9 0
1 8 -9 0
1 -8 9 0
-1 8 9 0
8 3 5 0
8 3 -5 0
8 -3 5 0
-8 3 5 0
5 6 10 0
5 6 -10 0
5 -6 10 0
-5 6 10 0
14 11 12 0
14 11 -12 0
14 -11 12 0
-14 11 12 0
12 16 13 0
12 16 -13 0
12 -16 13 0
-12 16 13 0
18 17 12 0
18 17 -12 0
18 -17 12 0
-18 17 12 0
18 15 11 0
18 15 -11 0
18 -15 11 0
-18 15 11 0
18 13 11 0
18 13 -11 0
18 -13 11 0
-18 13 11 0
18 13 12 0
18 13 -12 0
18 -13 12 0
-18 13 12 0
18 16 19 0
18 16 -19 0
18 -16 19 0
-18 16 19 0
19 13 11 0
19 13 -11 0
19 -13 11 0
-19 13 11 0
15 17 13 0
15 17 -13 0
15 -17 13 0
-15 17 13 0
17 13 19 0
17 13 -19 0
17 -13 19 0
-17 13 19 0
15 12 14 0
15 12 -14 0
15 -12 14 0
-15 12 14 0
17 15 13 0
17 15 -13 0
17 -15 13 0
-17 15 13 0
19 20 16 0
19 20 -16 0
19 -20 16 0
-19 20 16 0
20 11 16 0
20 11 -16 0
20 -11 16 0
-20 11 16 0
17 15 19 0
17 15 -19 0
17 -15 19 0
-17 15 19 0
17 16 20 0
17 16 -20 0
17 -16 20 0
-17 16 20 0
11 18 12 0
11 18 -12 0
11 -18 12 0
-11 18 12 0
16 11 18 0
16 11 -18 0
16 -11 18 0
-16 11 18 0
18 15 20 0
18 15 -20 0
18 -15 20 0
-18 15 20 0
13 19 14 0
13 19 -14 0
13 -19 14 0
-13 19 14 0
15 11 18 0
15 11 -18 0
15 -11 18 0
-15 11 18 0
11 15 16 0
11 15 -16 0
11 -15 16 0
-11 15 16 0
14 20 13 0
14 20 -13 0
14 -20 13 0
-14 20 13 0
20 11 12 0
20 11 -12 0
20 -11 12 0
-20 11 12 0
14 13 17 0
14 13 -17 0
14 -13 17 0
-14 13 17 0
18 19 14 0
18 19 -14 0
18 -19 14 0
-18 19 14 0
17 20 19 0
17 20 -19 0
17 -20 19 0
-17 20 19 0
14 17 12 0
14 17 -12 0
14 -17 12 0
-14 17 12 0
16 20 19 0
16 20 -19 0
16 -20 19 0
-16 20 19 0
14 11 17 0
14 11 -17 0
14 -11 17 0
-14 11 17 0
12 16 15 0
12 16 -15 0
12 -16 15 0
-12 16 15 0
12 13 18 0
12 13 -18 0
12 -13 18 0
-12 13 18 0
20 19 13 0
20 19 -13 0
20 -19 13 0
-20 19 13 0
18 12 17 0
18 12 -17 0
18 -12 17 0
-18 12 17 0
13 11 20 0
13 11 -20 0
13 -11 20 0
-13 11 20 0
17 18 14 0
17 18 -14 0
17 -18 14 0
-17 18 14 0
18 16 12 0
18 16 -12 0
18 -16 12 0
-18 16 12 0
13 19 18 0
13 19 -18 0
13 -19 18 0
-13 19 18 0
20 11 15 0
20 11 -15 0
20 -11 15 0
-20 11 15 0
16 14 19 0
16 14 -19 0
16 -14 19 0
-16 14 19 0
21 22 27 0
21 22 -27 0
21 -22 27 0
-21 22 27 0
27 24 26 0
27 24 -26 0
27 -24 26 0
-27 24 26 0
28 30 23 0
28 30 -23 0
28 -30 23 0
-28 30 23 0
27 30 23 0
27 30 -23 0
27 -30 23 0
-27 30 23 0
23 26 29 0
23 26 -29 0
23 -26 29 0
-23 26 29 0
21 24 25 0
21 24 -25 0
21 -24 25 0
-21 24 25 0
22 27 28 0
22 27 -28 0
22 -27 28 0
-22 27 28 0
26 22 28 0
26 22 -28 0
26 -22 28 0
-26 22 28 0
28 27 30 0
28 27 -30 0
28 -27 30 0
-28 27 30 0
27 22 28 0
27 22 -28 0
27 -22 28 0
-27 22 28 0
24 27 22 0
24 27 -22 0
24 -27 22 0
-24 27 22 0
25 21 24 0
25 21 -24 0
25 -21 24 0
-25 21 24 0
24 21 30 0
24 21 -30 0
24 -21 30 0
-24 21 30 0
24 30 27 0
24 30 -27 0
24 -30 27 0
-24 30 27 0
30 23 25 0
30 23 -25 0
30 -23 25 0
-30 23 25 0
21 28 25 0
21 28 -25 0
21 -28 25 0
-21 28 25 0
22 27 24 0
22 27 -24 0
22 -27 24 0
-22 27 24 0
25 21 23 0
25 21 -23 0
25 -21 23 0
-25 21 23 0
21 27 22 0
21 27 -22 0
21 -27 22 0
-21 27 22 0
24 26 21 0
24 26 -21 0
24 -26 21 0
-24 26 21 0
30 27 23 0
30 27 -23 0
30 -27 23 0
-30 27 23 0
21 23 22 0
21 23 -22 0
21 -23 22 0
-21 23 22 0
21 30 28 0
21 30 -28 0
21 -30 28 0
-21 30 28 0
29 24 26 0
29 24 -26 0
29 -24 26 0
-29 24 26 0
25 29 22 0
25 29 -22 0
25 -29 22 0
-25 29 22 0
27 22 24 0
27 22 -24 0
27 -22 24 0
-27 22 24 0
29 22 28 0
29 22 -28 0
29 -22 28 0
-29 22 28 0
29 28 30 0
29 28 -30 0
29 -28 30 0
-29 28 30 0
23 29 24 0
23 29 -24 0
23 -29 24 0
-23 29 24 0
28 25 30 0
28 25 -30 0
28 -25 30 0
-28 25 30 0
25 30 26 0
25 30 -26 0
25 -30 26 0
-25 30 26 0
27 23 29 0
27 23 -29 0
27 -23 29 0
-27 23 29 0
26 27 28 0
26 27 -28 0
26 -27 28 0
-26 27 28 0
28 23 25 0
28 23 -25 0
28 -23 25 0
-28 23 25 0
30 25 29 0
30 25 -29 0
30 -25 29 0
-30 25 29 0
24 26 27 0
24 26 -27 0
24 -26 27 0
-24 26 27 0
23 30 25 0
23 30 -25 0
23 -30 25 0
-23 30 25 0
28 23 24 0
28 23 -24 0
28 -23 24 0
-28 23 24 0
28 21 24 0
28 21 -24 0
28 -21 24 0
-28 21 24 0
27 28 24 0
27 28 -24 0
27 -28 24 0
-27 28 24 0
33 40 34 0
33 40 -34 0
33 -40 34 0
-33 40 34 0
36 34 33 0
36 34 -33 0
36 -34 33 0
-36 34 33 0
35 32 36 0
35 32 -36 0
35 -32 36 0
-35 32 36 0
38 40 39 0
38 40 -39 0
38 -40 39 0
-38 40 39 0
31 37 38 0
31 37 -38 0
31 -37 38 0
-31 37 38 0
31 37 36 0
31 37 -36 0
31 -37 36 0
-31 37 36 0
37 33 39 0
37 33 -39 0
37 -33 39 0
-37 33 39 0
38 39 34 0
38 39 -34 0
38 -39 34 0
-38 39 34 0
35 38 39 0
35 38 -39 0
35 -38 39 0
-35 38 39 0
35 36 33 0
35 36 -33 0
35 -36 33 0
-35 36 33 0
34 37 36 0
34 37 -36 0
34 -37 36 0
-34 37 36 0
33 36 40 0
33 36 -40 0
33 -36 40 0
-33 36 40 0
31 38 40 0
31 38 -40 0
31 -38 40 0
-31 38 40 0
38 33 40 0
38 33 -40 0
38 -33 40 0
-38 33 40 0
34 32 39 0
34 32 -39 0
34 -32 39 0
-34 32 39 0
36 39 38 0
36 39 -38 0
36 -39 38 0
-36 39 38 0
38 33 34 0
38 33 -34 0
38 -33 34 0
-38 33 34 0
39 34 31 0
39 34 -31 0
39 -34 31 0
-39 34 31 0
36 34 40 0
36 34 -40 0
36 -34 40 0
-36 34 40 0
36 31 32 0
36 31 -32 0
36 -31 32 0
-36 31 32 0
38 33 39 0
38 33 -39 0
38 -33 39 0
-38 33 39 0
39 31 38 0
39 31 -38 0
39 -31 38 0
-39 31 38 0
31 35 38 0
31 35 -38 0
31 -35 38 0
-31 35 38 0
33 34 32 0
33 34 -32 0
33 -34 32 0
-33 34 32 0
38 32 33 0
38 32 -33 0
38 -32 33 0
-38 32 33 0
37 40 31 0
37 40 -31 0
37 -40 31 0
-37 40 31 0
33 35 40 0
33 35 -40 0
33 -35 40 0
-33 35 40 0
40 32 38 0
40 32 -38 0
40 -32 38 0
-40 32 38 0
36 31 39 0
36 31 -39 0
36 -31 39 0
-36 31 39 0
35 31 37 0
35 31 -37 0
35 -31 37 0
-35 31 37 0
37 33 32 0
37 33 -32 0
37 -33 32 0
-37 33 32 0
37 36 34 0
37 36 -34 0
37 -36 34 0
-37 36 34 0
40 34 36 0
40 34 -36 0
40 -34 36 0
-40 34 36 0
39 38 36 0
39 38 -36 0
39 -38 36 0
-39 38 36 0
32 37 33 0
32 37 -33 0
32 -37 33 0
-32 37 33 0
40 33 35 0
40 33 -35 0
40 -33 35 0
-40 33 35 0
34 31 39 0
34 31 -39 0
34 -31 39 0
-34 31 39 0
31 39 33 0
31 39 -33 0
31 -39 33 0
-31 39 33 0
35 39 31 0
35 39 -31 0
35 -39 31 0
-35 39 31 0
35 38 33 0
35 38 -33 0
35 -38 33 0
-35 38 33 0
